\* Source Pyomo model name=unknown *\

min 
obj:
+2.0 x(1_2_1)
+3.0 x(1_3_1)
+5.0 x(1_4_1)
+5.0 x(1_5_1)
+9.0 x(1_6_1)
+5.0 x(1_7_1)
+2.0 x(2_1_1)
+1.0 x(2_3_1)
+3.0 x(2_4_1)
+3.0 x(2_5_1)
+7.0 x(2_6_1)
+7.0 x(2_7_1)
+2.0 x(2_8_1)
+3.0 x(3_1_1)
+1.0 x(3_2_1)
+2.0 x(3_4_1)
+2.0 x(3_5_1)
+6.0 x(3_6_1)
+8.0 x(3_7_1)
+3.0 x(3_8_1)
+5.0 x(4_1_1)
+3.0 x(4_2_1)
+2.0 x(4_3_1)
+4.0 x(4_6_1)
+10.0 x(4_7_1)
+5.0 x(4_8_1)
+5.0 x(5_1_1)
+3.0 x(5_2_1)
+2.0 x(5_3_1)
+4.0 x(5_6_1)
+10.0 x(5_7_1)
+5.0 x(5_8_1)
+9.0 x(6_1_1)
+7.0 x(6_2_1)
+6.0 x(6_3_1)
+4.0 x(6_4_1)
+4.0 x(6_5_1)
+14.0 x(6_7_1)
+9.0 x(6_8_1)
+5.0 x(7_1_1)
+7.0 x(7_2_1)
+8.0 x(7_3_1)
+10.0 x(7_4_1)
+10.0 x(7_5_1)
+14.0 x(7_6_1)
+5.0 x(7_8_1)
+2.0 x(8_2_1)
+3.0 x(8_3_1)
+5.0 x(8_4_1)
+5.0 x(8_5_1)
+9.0 x(8_6_1)
+5.0 x(8_7_1)

s.t.

c_e_constraints(1)_:
+1 x(1_1_1)
= 0

c_e_constraints(2)_:
+1 x(2_2_1)
= 0

c_e_constraints(3)_:
+1 x(3_3_1)
= 0

c_e_constraints(4)_:
+1 x(4_4_1)
= 0

c_e_constraints(5)_:
+1 x(5_5_1)
= 0

c_e_constraints(6)_:
+1 x(6_6_1)
= 0

c_e_constraints(7)_:
+1 x(7_7_1)
= 0

c_e_constraints(8)_:
+1 x(8_8_1)
= 0

c_e_constraints(9)_:
+1 x(1_1_2)
= 0

c_e_constraints(10)_:
+1 x(2_2_2)
= 0

c_e_constraints(11)_:
+1 x(3_3_2)
= 0

c_e_constraints(12)_:
+1 x(4_4_2)
= 0

c_e_constraints(13)_:
+1 x(5_5_2)
= 0

c_e_constraints(14)_:
+1 x(6_6_2)
= 0

c_e_constraints(15)_:
+1 x(7_7_2)
= 0

c_e_constraints(16)_:
+1 x(8_8_2)
= 0

c_e_constraints(17)_:
+1 x(1_1_3)
= 0

c_e_constraints(18)_:
+1 x(2_2_3)
= 0

c_e_constraints(19)_:
+1 x(3_3_3)
= 0

c_e_constraints(20)_:
+1 x(4_4_3)
= 0

c_e_constraints(21)_:
+1 x(5_5_3)
= 0

c_e_constraints(22)_:
+1 x(6_6_3)
= 0

c_e_constraints(23)_:
+1 x(7_7_3)
= 0

c_e_constraints(24)_:
+1 x(8_8_3)
= 0

c_e_constraints(25)_:
+1 x(1_1_4)
= 0

c_e_constraints(26)_:
+1 x(2_2_4)
= 0

c_e_constraints(27)_:
+1 x(3_3_4)
= 0

c_e_constraints(28)_:
+1 x(4_4_4)
= 0

c_e_constraints(29)_:
+1 x(5_5_4)
= 0

c_e_constraints(30)_:
+1 x(6_6_4)
= 0

c_e_constraints(31)_:
+1 x(7_7_4)
= 0

c_e_constraints(32)_:
+1 x(8_8_4)
= 0

c_e_constraints(33)_:
+1 x(1_1_5)
= 0

c_e_constraints(34)_:
+1 x(2_2_5)
= 0

c_e_constraints(35)_:
+1 x(3_3_5)
= 0

c_e_constraints(36)_:
+1 x(4_4_5)
= 0

c_e_constraints(37)_:
+1 x(5_5_5)
= 0

c_e_constraints(38)_:
+1 x(6_6_5)
= 0

c_e_constraints(39)_:
+1 x(7_7_5)
= 0

c_e_constraints(40)_:
+1 x(8_8_5)
= 0

c_e_constraints(41)_:
+1 x(1_1_6)
= 0

c_e_constraints(42)_:
+1 x(2_2_6)
= 0

c_e_constraints(43)_:
+1 x(3_3_6)
= 0

c_e_constraints(44)_:
+1 x(4_4_6)
= 0

c_e_constraints(45)_:
+1 x(5_5_6)
= 0

c_e_constraints(46)_:
+1 x(6_6_6)
= 0

c_e_constraints(47)_:
+1 x(7_7_6)
= 0

c_e_constraints(48)_:
+1 x(8_8_6)
= 0

c_e_constraints(49)_:
+1 x(1_1_7)
= 0

c_e_constraints(50)_:
+1 x(2_2_7)
= 0

c_e_constraints(51)_:
+1 x(3_3_7)
= 0

c_e_constraints(52)_:
+1 x(4_4_7)
= 0

c_e_constraints(53)_:
+1 x(5_5_7)
= 0

c_e_constraints(54)_:
+1 x(6_6_7)
= 0

c_e_constraints(55)_:
+1 x(7_7_7)
= 0

c_e_constraints(56)_:
+1 x(8_8_7)
= 0

c_e_constraints(57)_:
+1 x(1_2_1)
+1 x(2_1_1)
+1 x(1_2_2)
+1 x(2_1_2)
+1 x(1_2_3)
+1 x(2_1_3)
+1 x(1_2_4)
+1 x(2_1_4)
+1 x(1_2_5)
+1 x(2_1_5)
+1 x(1_2_6)
+1 x(2_1_6)
+1 x(1_2_7)
+1 x(2_1_7)
= 1

c_e_constraints(58)_:
+1 x(1_3_1)
+1 x(3_1_1)
+1 x(1_3_2)
+1 x(3_1_2)
+1 x(1_3_3)
+1 x(3_1_3)
+1 x(1_3_4)
+1 x(3_1_4)
+1 x(1_3_5)
+1 x(3_1_5)
+1 x(1_3_6)
+1 x(3_1_6)
+1 x(1_3_7)
+1 x(3_1_7)
= 1

c_e_constraints(59)_:
+1 x(1_4_1)
+1 x(4_1_1)
+1 x(1_4_2)
+1 x(4_1_2)
+1 x(1_4_3)
+1 x(4_1_3)
+1 x(1_4_4)
+1 x(4_1_4)
+1 x(1_4_5)
+1 x(4_1_5)
+1 x(1_4_6)
+1 x(4_1_6)
+1 x(1_4_7)
+1 x(4_1_7)
= 1

c_e_constraints(60)_:
+1 x(1_5_1)
+1 x(5_1_1)
+1 x(1_5_2)
+1 x(5_1_2)
+1 x(1_5_3)
+1 x(5_1_3)
+1 x(1_5_4)
+1 x(5_1_4)
+1 x(1_5_5)
+1 x(5_1_5)
+1 x(1_5_6)
+1 x(5_1_6)
+1 x(1_5_7)
+1 x(5_1_7)
= 1

c_e_constraints(61)_:
+1 x(1_6_1)
+1 x(6_1_1)
+1 x(1_6_2)
+1 x(6_1_2)
+1 x(1_6_3)
+1 x(6_1_3)
+1 x(1_6_4)
+1 x(6_1_4)
+1 x(1_6_5)
+1 x(6_1_5)
+1 x(1_6_6)
+1 x(6_1_6)
+1 x(1_6_7)
+1 x(6_1_7)
= 1

c_e_constraints(62)_:
+1 x(1_7_1)
+1 x(7_1_1)
+1 x(1_7_2)
+1 x(7_1_2)
+1 x(1_7_3)
+1 x(7_1_3)
+1 x(1_7_4)
+1 x(7_1_4)
+1 x(1_7_5)
+1 x(7_1_5)
+1 x(1_7_6)
+1 x(7_1_6)
+1 x(1_7_7)
+1 x(7_1_7)
= 1

c_e_constraints(63)_:
+1 x(1_8_1)
+1 x(8_1_1)
+1 x(1_8_2)
+1 x(8_1_2)
+1 x(1_8_3)
+1 x(8_1_3)
+1 x(1_8_4)
+1 x(8_1_4)
+1 x(1_8_5)
+1 x(8_1_5)
+1 x(1_8_6)
+1 x(8_1_6)
+1 x(1_8_7)
+1 x(8_1_7)
= 1

c_e_constraints(64)_:
+1 x(2_3_1)
+1 x(3_2_1)
+1 x(2_3_2)
+1 x(3_2_2)
+1 x(2_3_3)
+1 x(3_2_3)
+1 x(2_3_4)
+1 x(3_2_4)
+1 x(2_3_5)
+1 x(3_2_5)
+1 x(2_3_6)
+1 x(3_2_6)
+1 x(2_3_7)
+1 x(3_2_7)
= 1

c_e_constraints(65)_:
+1 x(2_4_1)
+1 x(4_2_1)
+1 x(2_4_2)
+1 x(4_2_2)
+1 x(2_4_3)
+1 x(4_2_3)
+1 x(2_4_4)
+1 x(4_2_4)
+1 x(2_4_5)
+1 x(4_2_5)
+1 x(2_4_6)
+1 x(4_2_6)
+1 x(2_4_7)
+1 x(4_2_7)
= 1

c_e_constraints(66)_:
+1 x(2_5_1)
+1 x(5_2_1)
+1 x(2_5_2)
+1 x(5_2_2)
+1 x(2_5_3)
+1 x(5_2_3)
+1 x(2_5_4)
+1 x(5_2_4)
+1 x(2_5_5)
+1 x(5_2_5)
+1 x(2_5_6)
+1 x(5_2_6)
+1 x(2_5_7)
+1 x(5_2_7)
= 1

c_e_constraints(67)_:
+1 x(2_6_1)
+1 x(6_2_1)
+1 x(2_6_2)
+1 x(6_2_2)
+1 x(2_6_3)
+1 x(6_2_3)
+1 x(2_6_4)
+1 x(6_2_4)
+1 x(2_6_5)
+1 x(6_2_5)
+1 x(2_6_6)
+1 x(6_2_6)
+1 x(2_6_7)
+1 x(6_2_7)
= 1

c_e_constraints(68)_:
+1 x(2_7_1)
+1 x(7_2_1)
+1 x(2_7_2)
+1 x(7_2_2)
+1 x(2_7_3)
+1 x(7_2_3)
+1 x(2_7_4)
+1 x(7_2_4)
+1 x(2_7_5)
+1 x(7_2_5)
+1 x(2_7_6)
+1 x(7_2_6)
+1 x(2_7_7)
+1 x(7_2_7)
= 1

c_e_constraints(69)_:
+1 x(2_8_1)
+1 x(8_2_1)
+1 x(2_8_2)
+1 x(8_2_2)
+1 x(2_8_3)
+1 x(8_2_3)
+1 x(2_8_4)
+1 x(8_2_4)
+1 x(2_8_5)
+1 x(8_2_5)
+1 x(2_8_6)
+1 x(8_2_6)
+1 x(2_8_7)
+1 x(8_2_7)
= 1

c_e_constraints(70)_:
+1 x(3_4_1)
+1 x(4_3_1)
+1 x(3_4_2)
+1 x(4_3_2)
+1 x(3_4_3)
+1 x(4_3_3)
+1 x(3_4_4)
+1 x(4_3_4)
+1 x(3_4_5)
+1 x(4_3_5)
+1 x(3_4_6)
+1 x(4_3_6)
+1 x(3_4_7)
+1 x(4_3_7)
= 1

c_e_constraints(71)_:
+1 x(3_5_1)
+1 x(5_3_1)
+1 x(3_5_2)
+1 x(5_3_2)
+1 x(3_5_3)
+1 x(5_3_3)
+1 x(3_5_4)
+1 x(5_3_4)
+1 x(3_5_5)
+1 x(5_3_5)
+1 x(3_5_6)
+1 x(5_3_6)
+1 x(3_5_7)
+1 x(5_3_7)
= 1

c_e_constraints(72)_:
+1 x(3_6_1)
+1 x(6_3_1)
+1 x(3_6_2)
+1 x(6_3_2)
+1 x(3_6_3)
+1 x(6_3_3)
+1 x(3_6_4)
+1 x(6_3_4)
+1 x(3_6_5)
+1 x(6_3_5)
+1 x(3_6_6)
+1 x(6_3_6)
+1 x(3_6_7)
+1 x(6_3_7)
= 1

c_e_constraints(73)_:
+1 x(3_7_1)
+1 x(7_3_1)
+1 x(3_7_2)
+1 x(7_3_2)
+1 x(3_7_3)
+1 x(7_3_3)
+1 x(3_7_4)
+1 x(7_3_4)
+1 x(3_7_5)
+1 x(7_3_5)
+1 x(3_7_6)
+1 x(7_3_6)
+1 x(3_7_7)
+1 x(7_3_7)
= 1

c_e_constraints(74)_:
+1 x(3_8_1)
+1 x(8_3_1)
+1 x(3_8_2)
+1 x(8_3_2)
+1 x(3_8_3)
+1 x(8_3_3)
+1 x(3_8_4)
+1 x(8_3_4)
+1 x(3_8_5)
+1 x(8_3_5)
+1 x(3_8_6)
+1 x(8_3_6)
+1 x(3_8_7)
+1 x(8_3_7)
= 1

c_e_constraints(75)_:
+1 x(4_5_1)
+1 x(5_4_1)
+1 x(4_5_2)
+1 x(5_4_2)
+1 x(4_5_3)
+1 x(5_4_3)
+1 x(4_5_4)
+1 x(5_4_4)
+1 x(4_5_5)
+1 x(5_4_5)
+1 x(4_5_6)
+1 x(5_4_6)
+1 x(4_5_7)
+1 x(5_4_7)
= 1

c_e_constraints(76)_:
+1 x(4_6_1)
+1 x(6_4_1)
+1 x(4_6_2)
+1 x(6_4_2)
+1 x(4_6_3)
+1 x(6_4_3)
+1 x(4_6_4)
+1 x(6_4_4)
+1 x(4_6_5)
+1 x(6_4_5)
+1 x(4_6_6)
+1 x(6_4_6)
+1 x(4_6_7)
+1 x(6_4_7)
= 1

c_e_constraints(77)_:
+1 x(4_7_1)
+1 x(7_4_1)
+1 x(4_7_2)
+1 x(7_4_2)
+1 x(4_7_3)
+1 x(7_4_3)
+1 x(4_7_4)
+1 x(7_4_4)
+1 x(4_7_5)
+1 x(7_4_5)
+1 x(4_7_6)
+1 x(7_4_6)
+1 x(4_7_7)
+1 x(7_4_7)
= 1

c_e_constraints(78)_:
+1 x(4_8_1)
+1 x(8_4_1)
+1 x(4_8_2)
+1 x(8_4_2)
+1 x(4_8_3)
+1 x(8_4_3)
+1 x(4_8_4)
+1 x(8_4_4)
+1 x(4_8_5)
+1 x(8_4_5)
+1 x(4_8_6)
+1 x(8_4_6)
+1 x(4_8_7)
+1 x(8_4_7)
= 1

c_e_constraints(79)_:
+1 x(5_6_1)
+1 x(6_5_1)
+1 x(5_6_2)
+1 x(6_5_2)
+1 x(5_6_3)
+1 x(6_5_3)
+1 x(5_6_4)
+1 x(6_5_4)
+1 x(5_6_5)
+1 x(6_5_5)
+1 x(5_6_6)
+1 x(6_5_6)
+1 x(5_6_7)
+1 x(6_5_7)
= 1

c_e_constraints(80)_:
+1 x(5_7_1)
+1 x(7_5_1)
+1 x(5_7_2)
+1 x(7_5_2)
+1 x(5_7_3)
+1 x(7_5_3)
+1 x(5_7_4)
+1 x(7_5_4)
+1 x(5_7_5)
+1 x(7_5_5)
+1 x(5_7_6)
+1 x(7_5_6)
+1 x(5_7_7)
+1 x(7_5_7)
= 1

c_e_constraints(81)_:
+1 x(5_8_1)
+1 x(8_5_1)
+1 x(5_8_2)
+1 x(8_5_2)
+1 x(5_8_3)
+1 x(8_5_3)
+1 x(5_8_4)
+1 x(8_5_4)
+1 x(5_8_5)
+1 x(8_5_5)
+1 x(5_8_6)
+1 x(8_5_6)
+1 x(5_8_7)
+1 x(8_5_7)
= 1

c_e_constraints(82)_:
+1 x(6_7_1)
+1 x(7_6_1)
+1 x(6_7_2)
+1 x(7_6_2)
+1 x(6_7_3)
+1 x(7_6_3)
+1 x(6_7_4)
+1 x(7_6_4)
+1 x(6_7_5)
+1 x(7_6_5)
+1 x(6_7_6)
+1 x(7_6_6)
+1 x(6_7_7)
+1 x(7_6_7)
= 1

c_e_constraints(83)_:
+1 x(6_8_1)
+1 x(8_6_1)
+1 x(6_8_2)
+1 x(8_6_2)
+1 x(6_8_3)
+1 x(8_6_3)
+1 x(6_8_4)
+1 x(8_6_4)
+1 x(6_8_5)
+1 x(8_6_5)
+1 x(6_8_6)
+1 x(8_6_6)
+1 x(6_8_7)
+1 x(8_6_7)
= 1

c_e_constraints(84)_:
+1 x(7_8_1)
+1 x(8_7_1)
+1 x(7_8_2)
+1 x(8_7_2)
+1 x(7_8_3)
+1 x(8_7_3)
+1 x(7_8_4)
+1 x(8_7_4)
+1 x(7_8_5)
+1 x(8_7_5)
+1 x(7_8_6)
+1 x(8_7_6)
+1 x(7_8_7)
+1 x(8_7_7)
= 1

c_e_constraints(85)_:
+1 x(1_2_1)
+1 x(1_3_1)
+1 x(1_4_1)
+1 x(1_5_1)
+1 x(1_6_1)
+1 x(1_7_1)
+1 x(2_1_1)
+1 x(3_1_1)
+1 x(4_1_1)
+1 x(5_1_1)
+1 x(6_1_1)
+1 x(7_1_1)
+1 x(1_8_1)
+1 x(8_1_1)
= 1

c_e_constraints(86)_:
+1 x(1_2_2)
+1 x(2_1_2)
+1 x(1_3_2)
+1 x(3_1_2)
+1 x(1_4_2)
+1 x(4_1_2)
+1 x(1_5_2)
+1 x(5_1_2)
+1 x(1_6_2)
+1 x(6_1_2)
+1 x(1_7_2)
+1 x(7_1_2)
+1 x(1_8_2)
+1 x(8_1_2)
= 1

c_e_constraints(87)_:
+1 x(1_2_3)
+1 x(2_1_3)
+1 x(1_3_3)
+1 x(3_1_3)
+1 x(1_4_3)
+1 x(4_1_3)
+1 x(1_5_3)
+1 x(5_1_3)
+1 x(1_6_3)
+1 x(6_1_3)
+1 x(1_7_3)
+1 x(7_1_3)
+1 x(1_8_3)
+1 x(8_1_3)
= 1

c_e_constraints(88)_:
+1 x(1_2_4)
+1 x(2_1_4)
+1 x(1_3_4)
+1 x(3_1_4)
+1 x(1_4_4)
+1 x(4_1_4)
+1 x(1_5_4)
+1 x(5_1_4)
+1 x(1_6_4)
+1 x(6_1_4)
+1 x(1_7_4)
+1 x(7_1_4)
+1 x(1_8_4)
+1 x(8_1_4)
= 1

c_e_constraints(89)_:
+1 x(1_2_5)
+1 x(2_1_5)
+1 x(1_3_5)
+1 x(3_1_5)
+1 x(1_4_5)
+1 x(4_1_5)
+1 x(1_5_5)
+1 x(5_1_5)
+1 x(1_6_5)
+1 x(6_1_5)
+1 x(1_7_5)
+1 x(7_1_5)
+1 x(1_8_5)
+1 x(8_1_5)
= 1

c_e_constraints(90)_:
+1 x(1_2_6)
+1 x(2_1_6)
+1 x(1_3_6)
+1 x(3_1_6)
+1 x(1_4_6)
+1 x(4_1_6)
+1 x(1_5_6)
+1 x(5_1_6)
+1 x(1_6_6)
+1 x(6_1_6)
+1 x(1_7_6)
+1 x(7_1_6)
+1 x(1_8_6)
+1 x(8_1_6)
= 1

c_e_constraints(91)_:
+1 x(1_2_7)
+1 x(2_1_7)
+1 x(1_3_7)
+1 x(3_1_7)
+1 x(1_4_7)
+1 x(4_1_7)
+1 x(1_5_7)
+1 x(5_1_7)
+1 x(1_6_7)
+1 x(6_1_7)
+1 x(1_7_7)
+1 x(7_1_7)
+1 x(1_8_7)
+1 x(8_1_7)
= 1

c_e_constraints(92)_:
+1 x(1_2_1)
+1 x(2_1_1)
+1 x(2_3_1)
+1 x(2_4_1)
+1 x(2_5_1)
+1 x(2_6_1)
+1 x(2_7_1)
+1 x(2_8_1)
+1 x(3_2_1)
+1 x(4_2_1)
+1 x(5_2_1)
+1 x(6_2_1)
+1 x(7_2_1)
+1 x(8_2_1)
= 1

c_e_constraints(93)_:
+1 x(1_2_2)
+1 x(2_1_2)
+1 x(2_3_2)
+1 x(3_2_2)
+1 x(2_4_2)
+1 x(4_2_2)
+1 x(2_5_2)
+1 x(5_2_2)
+1 x(2_6_2)
+1 x(6_2_2)
+1 x(2_7_2)
+1 x(7_2_2)
+1 x(2_8_2)
+1 x(8_2_2)
= 1

c_e_constraints(94)_:
+1 x(1_2_3)
+1 x(2_1_3)
+1 x(2_3_3)
+1 x(3_2_3)
+1 x(2_4_3)
+1 x(4_2_3)
+1 x(2_5_3)
+1 x(5_2_3)
+1 x(2_6_3)
+1 x(6_2_3)
+1 x(2_7_3)
+1 x(7_2_3)
+1 x(2_8_3)
+1 x(8_2_3)
= 1

c_e_constraints(95)_:
+1 x(1_2_4)
+1 x(2_1_4)
+1 x(2_3_4)
+1 x(3_2_4)
+1 x(2_4_4)
+1 x(4_2_4)
+1 x(2_5_4)
+1 x(5_2_4)
+1 x(2_6_4)
+1 x(6_2_4)
+1 x(2_7_4)
+1 x(7_2_4)
+1 x(2_8_4)
+1 x(8_2_4)
= 1

c_e_constraints(96)_:
+1 x(1_2_5)
+1 x(2_1_5)
+1 x(2_3_5)
+1 x(3_2_5)
+1 x(2_4_5)
+1 x(4_2_5)
+1 x(2_5_5)
+1 x(5_2_5)
+1 x(2_6_5)
+1 x(6_2_5)
+1 x(2_7_5)
+1 x(7_2_5)
+1 x(2_8_5)
+1 x(8_2_5)
= 1

c_e_constraints(97)_:
+1 x(1_2_6)
+1 x(2_1_6)
+1 x(2_3_6)
+1 x(3_2_6)
+1 x(2_4_6)
+1 x(4_2_6)
+1 x(2_5_6)
+1 x(5_2_6)
+1 x(2_6_6)
+1 x(6_2_6)
+1 x(2_7_6)
+1 x(7_2_6)
+1 x(2_8_6)
+1 x(8_2_6)
= 1

c_e_constraints(98)_:
+1 x(1_2_7)
+1 x(2_1_7)
+1 x(2_3_7)
+1 x(3_2_7)
+1 x(2_4_7)
+1 x(4_2_7)
+1 x(2_5_7)
+1 x(5_2_7)
+1 x(2_6_7)
+1 x(6_2_7)
+1 x(2_7_7)
+1 x(7_2_7)
+1 x(2_8_7)
+1 x(8_2_7)
= 1

c_e_constraints(99)_:
+1 x(1_3_1)
+1 x(2_3_1)
+1 x(3_1_1)
+1 x(3_2_1)
+1 x(3_4_1)
+1 x(3_5_1)
+1 x(3_6_1)
+1 x(3_7_1)
+1 x(3_8_1)
+1 x(4_3_1)
+1 x(5_3_1)
+1 x(6_3_1)
+1 x(7_3_1)
+1 x(8_3_1)
= 1

c_e_constraints(100)_:
+1 x(1_3_2)
+1 x(3_1_2)
+1 x(2_3_2)
+1 x(3_2_2)
+1 x(3_4_2)
+1 x(4_3_2)
+1 x(3_5_2)
+1 x(5_3_2)
+1 x(3_6_2)
+1 x(6_3_2)
+1 x(3_7_2)
+1 x(7_3_2)
+1 x(3_8_2)
+1 x(8_3_2)
= 1

c_e_constraints(101)_:
+1 x(1_3_3)
+1 x(3_1_3)
+1 x(2_3_3)
+1 x(3_2_3)
+1 x(3_4_3)
+1 x(4_3_3)
+1 x(3_5_3)
+1 x(5_3_3)
+1 x(3_6_3)
+1 x(6_3_3)
+1 x(3_7_3)
+1 x(7_3_3)
+1 x(3_8_3)
+1 x(8_3_3)
= 1

c_e_constraints(102)_:
+1 x(1_3_4)
+1 x(3_1_4)
+1 x(2_3_4)
+1 x(3_2_4)
+1 x(3_4_4)
+1 x(4_3_4)
+1 x(3_5_4)
+1 x(5_3_4)
+1 x(3_6_4)
+1 x(6_3_4)
+1 x(3_7_4)
+1 x(7_3_4)
+1 x(3_8_4)
+1 x(8_3_4)
= 1

c_e_constraints(103)_:
+1 x(1_3_5)
+1 x(3_1_5)
+1 x(2_3_5)
+1 x(3_2_5)
+1 x(3_4_5)
+1 x(4_3_5)
+1 x(3_5_5)
+1 x(5_3_5)
+1 x(3_6_5)
+1 x(6_3_5)
+1 x(3_7_5)
+1 x(7_3_5)
+1 x(3_8_5)
+1 x(8_3_5)
= 1

c_e_constraints(104)_:
+1 x(1_3_6)
+1 x(3_1_6)
+1 x(2_3_6)
+1 x(3_2_6)
+1 x(3_4_6)
+1 x(4_3_6)
+1 x(3_5_6)
+1 x(5_3_6)
+1 x(3_6_6)
+1 x(6_3_6)
+1 x(3_7_6)
+1 x(7_3_6)
+1 x(3_8_6)
+1 x(8_3_6)
= 1

c_e_constraints(105)_:
+1 x(1_3_7)
+1 x(3_1_7)
+1 x(2_3_7)
+1 x(3_2_7)
+1 x(3_4_7)
+1 x(4_3_7)
+1 x(3_5_7)
+1 x(5_3_7)
+1 x(3_6_7)
+1 x(6_3_7)
+1 x(3_7_7)
+1 x(7_3_7)
+1 x(3_8_7)
+1 x(8_3_7)
= 1

c_e_constraints(106)_:
+1 x(1_4_1)
+1 x(2_4_1)
+1 x(3_4_1)
+1 x(4_1_1)
+1 x(4_2_1)
+1 x(4_3_1)
+1 x(4_6_1)
+1 x(4_7_1)
+1 x(4_8_1)
+1 x(6_4_1)
+1 x(7_4_1)
+1 x(8_4_1)
+1 x(4_5_1)
+1 x(5_4_1)
= 1

c_e_constraints(107)_:
+1 x(1_4_2)
+1 x(4_1_2)
+1 x(2_4_2)
+1 x(4_2_2)
+1 x(3_4_2)
+1 x(4_3_2)
+1 x(4_5_2)
+1 x(5_4_2)
+1 x(4_6_2)
+1 x(6_4_2)
+1 x(4_7_2)
+1 x(7_4_2)
+1 x(4_8_2)
+1 x(8_4_2)
= 1

c_e_constraints(108)_:
+1 x(1_4_3)
+1 x(4_1_3)
+1 x(2_4_3)
+1 x(4_2_3)
+1 x(3_4_3)
+1 x(4_3_3)
+1 x(4_5_3)
+1 x(5_4_3)
+1 x(4_6_3)
+1 x(6_4_3)
+1 x(4_7_3)
+1 x(7_4_3)
+1 x(4_8_3)
+1 x(8_4_3)
= 1

c_e_constraints(109)_:
+1 x(1_4_4)
+1 x(4_1_4)
+1 x(2_4_4)
+1 x(4_2_4)
+1 x(3_4_4)
+1 x(4_3_4)
+1 x(4_5_4)
+1 x(5_4_4)
+1 x(4_6_4)
+1 x(6_4_4)
+1 x(4_7_4)
+1 x(7_4_4)
+1 x(4_8_4)
+1 x(8_4_4)
= 1

c_e_constraints(110)_:
+1 x(1_4_5)
+1 x(4_1_5)
+1 x(2_4_5)
+1 x(4_2_5)
+1 x(3_4_5)
+1 x(4_3_5)
+1 x(4_5_5)
+1 x(5_4_5)
+1 x(4_6_5)
+1 x(6_4_5)
+1 x(4_7_5)
+1 x(7_4_5)
+1 x(4_8_5)
+1 x(8_4_5)
= 1

c_e_constraints(111)_:
+1 x(1_4_6)
+1 x(4_1_6)
+1 x(2_4_6)
+1 x(4_2_6)
+1 x(3_4_6)
+1 x(4_3_6)
+1 x(4_5_6)
+1 x(5_4_6)
+1 x(4_6_6)
+1 x(6_4_6)
+1 x(4_7_6)
+1 x(7_4_6)
+1 x(4_8_6)
+1 x(8_4_6)
= 1

c_e_constraints(112)_:
+1 x(1_4_7)
+1 x(4_1_7)
+1 x(2_4_7)
+1 x(4_2_7)
+1 x(3_4_7)
+1 x(4_3_7)
+1 x(4_5_7)
+1 x(5_4_7)
+1 x(4_6_7)
+1 x(6_4_7)
+1 x(4_7_7)
+1 x(7_4_7)
+1 x(4_8_7)
+1 x(8_4_7)
= 1

c_e_constraints(113)_:
+1 x(1_5_1)
+1 x(2_5_1)
+1 x(3_5_1)
+1 x(5_1_1)
+1 x(5_2_1)
+1 x(5_3_1)
+1 x(5_6_1)
+1 x(5_7_1)
+1 x(5_8_1)
+1 x(6_5_1)
+1 x(7_5_1)
+1 x(8_5_1)
+1 x(4_5_1)
+1 x(5_4_1)
= 1

c_e_constraints(114)_:
+1 x(1_5_2)
+1 x(5_1_2)
+1 x(2_5_2)
+1 x(5_2_2)
+1 x(3_5_2)
+1 x(5_3_2)
+1 x(4_5_2)
+1 x(5_4_2)
+1 x(5_6_2)
+1 x(6_5_2)
+1 x(5_7_2)
+1 x(7_5_2)
+1 x(5_8_2)
+1 x(8_5_2)
= 1

c_e_constraints(115)_:
+1 x(1_5_3)
+1 x(5_1_3)
+1 x(2_5_3)
+1 x(5_2_3)
+1 x(3_5_3)
+1 x(5_3_3)
+1 x(4_5_3)
+1 x(5_4_3)
+1 x(5_6_3)
+1 x(6_5_3)
+1 x(5_7_3)
+1 x(7_5_3)
+1 x(5_8_3)
+1 x(8_5_3)
= 1

c_e_constraints(116)_:
+1 x(1_5_4)
+1 x(5_1_4)
+1 x(2_5_4)
+1 x(5_2_4)
+1 x(3_5_4)
+1 x(5_3_4)
+1 x(4_5_4)
+1 x(5_4_4)
+1 x(5_6_4)
+1 x(6_5_4)
+1 x(5_7_4)
+1 x(7_5_4)
+1 x(5_8_4)
+1 x(8_5_4)
= 1

c_e_constraints(117)_:
+1 x(1_5_5)
+1 x(5_1_5)
+1 x(2_5_5)
+1 x(5_2_5)
+1 x(3_5_5)
+1 x(5_3_5)
+1 x(4_5_5)
+1 x(5_4_5)
+1 x(5_6_5)
+1 x(6_5_5)
+1 x(5_7_5)
+1 x(7_5_5)
+1 x(5_8_5)
+1 x(8_5_5)
= 1

c_e_constraints(118)_:
+1 x(1_5_6)
+1 x(5_1_6)
+1 x(2_5_6)
+1 x(5_2_6)
+1 x(3_5_6)
+1 x(5_3_6)
+1 x(4_5_6)
+1 x(5_4_6)
+1 x(5_6_6)
+1 x(6_5_6)
+1 x(5_7_6)
+1 x(7_5_6)
+1 x(5_8_6)
+1 x(8_5_6)
= 1

c_e_constraints(119)_:
+1 x(1_5_7)
+1 x(5_1_7)
+1 x(2_5_7)
+1 x(5_2_7)
+1 x(3_5_7)
+1 x(5_3_7)
+1 x(4_5_7)
+1 x(5_4_7)
+1 x(5_6_7)
+1 x(6_5_7)
+1 x(5_7_7)
+1 x(7_5_7)
+1 x(5_8_7)
+1 x(8_5_7)
= 1

c_e_constraints(120)_:
+1 x(1_6_1)
+1 x(2_6_1)
+1 x(3_6_1)
+1 x(4_6_1)
+1 x(5_6_1)
+1 x(6_1_1)
+1 x(6_2_1)
+1 x(6_3_1)
+1 x(6_4_1)
+1 x(6_5_1)
+1 x(6_7_1)
+1 x(6_8_1)
+1 x(7_6_1)
+1 x(8_6_1)
= 1

c_e_constraints(121)_:
+1 x(1_6_2)
+1 x(6_1_2)
+1 x(2_6_2)
+1 x(6_2_2)
+1 x(3_6_2)
+1 x(6_3_2)
+1 x(4_6_2)
+1 x(6_4_2)
+1 x(5_6_2)
+1 x(6_5_2)
+1 x(6_7_2)
+1 x(7_6_2)
+1 x(6_8_2)
+1 x(8_6_2)
= 1

c_e_constraints(122)_:
+1 x(1_6_3)
+1 x(6_1_3)
+1 x(2_6_3)
+1 x(6_2_3)
+1 x(3_6_3)
+1 x(6_3_3)
+1 x(4_6_3)
+1 x(6_4_3)
+1 x(5_6_3)
+1 x(6_5_3)
+1 x(6_7_3)
+1 x(7_6_3)
+1 x(6_8_3)
+1 x(8_6_3)
= 1

c_e_constraints(123)_:
+1 x(1_6_4)
+1 x(6_1_4)
+1 x(2_6_4)
+1 x(6_2_4)
+1 x(3_6_4)
+1 x(6_3_4)
+1 x(4_6_4)
+1 x(6_4_4)
+1 x(5_6_4)
+1 x(6_5_4)
+1 x(6_7_4)
+1 x(7_6_4)
+1 x(6_8_4)
+1 x(8_6_4)
= 1

c_e_constraints(124)_:
+1 x(1_6_5)
+1 x(6_1_5)
+1 x(2_6_5)
+1 x(6_2_5)
+1 x(3_6_5)
+1 x(6_3_5)
+1 x(4_6_5)
+1 x(6_4_5)
+1 x(5_6_5)
+1 x(6_5_5)
+1 x(6_7_5)
+1 x(7_6_5)
+1 x(6_8_5)
+1 x(8_6_5)
= 1

c_e_constraints(125)_:
+1 x(1_6_6)
+1 x(6_1_6)
+1 x(2_6_6)
+1 x(6_2_6)
+1 x(3_6_6)
+1 x(6_3_6)
+1 x(4_6_6)
+1 x(6_4_6)
+1 x(5_6_6)
+1 x(6_5_6)
+1 x(6_7_6)
+1 x(7_6_6)
+1 x(6_8_6)
+1 x(8_6_6)
= 1

c_e_constraints(126)_:
+1 x(1_6_7)
+1 x(6_1_7)
+1 x(2_6_7)
+1 x(6_2_7)
+1 x(3_6_7)
+1 x(6_3_7)
+1 x(4_6_7)
+1 x(6_4_7)
+1 x(5_6_7)
+1 x(6_5_7)
+1 x(6_7_7)
+1 x(7_6_7)
+1 x(6_8_7)
+1 x(8_6_7)
= 1

c_e_constraints(127)_:
+1 x(1_7_1)
+1 x(2_7_1)
+1 x(3_7_1)
+1 x(4_7_1)
+1 x(5_7_1)
+1 x(6_7_1)
+1 x(7_1_1)
+1 x(7_2_1)
+1 x(7_3_1)
+1 x(7_4_1)
+1 x(7_5_1)
+1 x(7_6_1)
+1 x(7_8_1)
+1 x(8_7_1)
= 1

c_e_constraints(128)_:
+1 x(1_7_2)
+1 x(7_1_2)
+1 x(2_7_2)
+1 x(7_2_2)
+1 x(3_7_2)
+1 x(7_3_2)
+1 x(4_7_2)
+1 x(7_4_2)
+1 x(5_7_2)
+1 x(7_5_2)
+1 x(6_7_2)
+1 x(7_6_2)
+1 x(7_8_2)
+1 x(8_7_2)
= 1

c_e_constraints(129)_:
+1 x(1_7_3)
+1 x(7_1_3)
+1 x(2_7_3)
+1 x(7_2_3)
+1 x(3_7_3)
+1 x(7_3_3)
+1 x(4_7_3)
+1 x(7_4_3)
+1 x(5_7_3)
+1 x(7_5_3)
+1 x(6_7_3)
+1 x(7_6_3)
+1 x(7_8_3)
+1 x(8_7_3)
= 1

c_e_constraints(130)_:
+1 x(1_7_4)
+1 x(7_1_4)
+1 x(2_7_4)
+1 x(7_2_4)
+1 x(3_7_4)
+1 x(7_3_4)
+1 x(4_7_4)
+1 x(7_4_4)
+1 x(5_7_4)
+1 x(7_5_4)
+1 x(6_7_4)
+1 x(7_6_4)
+1 x(7_8_4)
+1 x(8_7_4)
= 1

c_e_constraints(131)_:
+1 x(1_7_5)
+1 x(7_1_5)
+1 x(2_7_5)
+1 x(7_2_5)
+1 x(3_7_5)
+1 x(7_3_5)
+1 x(4_7_5)
+1 x(7_4_5)
+1 x(5_7_5)
+1 x(7_5_5)
+1 x(6_7_5)
+1 x(7_6_5)
+1 x(7_8_5)
+1 x(8_7_5)
= 1

c_e_constraints(132)_:
+1 x(1_7_6)
+1 x(7_1_6)
+1 x(2_7_6)
+1 x(7_2_6)
+1 x(3_7_6)
+1 x(7_3_6)
+1 x(4_7_6)
+1 x(7_4_6)
+1 x(5_7_6)
+1 x(7_5_6)
+1 x(6_7_6)
+1 x(7_6_6)
+1 x(7_8_6)
+1 x(8_7_6)
= 1

c_e_constraints(133)_:
+1 x(1_7_7)
+1 x(7_1_7)
+1 x(2_7_7)
+1 x(7_2_7)
+1 x(3_7_7)
+1 x(7_3_7)
+1 x(4_7_7)
+1 x(7_4_7)
+1 x(5_7_7)
+1 x(7_5_7)
+1 x(6_7_7)
+1 x(7_6_7)
+1 x(7_8_7)
+1 x(8_7_7)
= 1

c_e_constraints(134)_:
+1 x(2_8_1)
+1 x(3_8_1)
+1 x(4_8_1)
+1 x(5_8_1)
+1 x(6_8_1)
+1 x(7_8_1)
+1 x(8_2_1)
+1 x(8_3_1)
+1 x(8_4_1)
+1 x(8_5_1)
+1 x(8_6_1)
+1 x(8_7_1)
+1 x(1_8_1)
+1 x(8_1_1)
= 1

c_e_constraints(135)_:
+1 x(1_8_2)
+1 x(8_1_2)
+1 x(2_8_2)
+1 x(8_2_2)
+1 x(3_8_2)
+1 x(8_3_2)
+1 x(4_8_2)
+1 x(8_4_2)
+1 x(5_8_2)
+1 x(8_5_2)
+1 x(6_8_2)
+1 x(8_6_2)
+1 x(7_8_2)
+1 x(8_7_2)
= 1

c_e_constraints(136)_:
+1 x(1_8_3)
+1 x(8_1_3)
+1 x(2_8_3)
+1 x(8_2_3)
+1 x(3_8_3)
+1 x(8_3_3)
+1 x(4_8_3)
+1 x(8_4_3)
+1 x(5_8_3)
+1 x(8_5_3)
+1 x(6_8_3)
+1 x(8_6_3)
+1 x(7_8_3)
+1 x(8_7_3)
= 1

c_e_constraints(137)_:
+1 x(1_8_4)
+1 x(8_1_4)
+1 x(2_8_4)
+1 x(8_2_4)
+1 x(3_8_4)
+1 x(8_3_4)
+1 x(4_8_4)
+1 x(8_4_4)
+1 x(5_8_4)
+1 x(8_5_4)
+1 x(6_8_4)
+1 x(8_6_4)
+1 x(7_8_4)
+1 x(8_7_4)
= 1

c_e_constraints(138)_:
+1 x(1_8_5)
+1 x(8_1_5)
+1 x(2_8_5)
+1 x(8_2_5)
+1 x(3_8_5)
+1 x(8_3_5)
+1 x(4_8_5)
+1 x(8_4_5)
+1 x(5_8_5)
+1 x(8_5_5)
+1 x(6_8_5)
+1 x(8_6_5)
+1 x(7_8_5)
+1 x(8_7_5)
= 1

c_e_constraints(139)_:
+1 x(1_8_6)
+1 x(8_1_6)
+1 x(2_8_6)
+1 x(8_2_6)
+1 x(3_8_6)
+1 x(8_3_6)
+1 x(4_8_6)
+1 x(8_4_6)
+1 x(5_8_6)
+1 x(8_5_6)
+1 x(6_8_6)
+1 x(8_6_6)
+1 x(7_8_6)
+1 x(8_7_6)
= 1

c_e_constraints(140)_:
+1 x(1_8_7)
+1 x(8_1_7)
+1 x(2_8_7)
+1 x(8_2_7)
+1 x(3_8_7)
+1 x(8_3_7)
+1 x(4_8_7)
+1 x(8_4_7)
+1 x(5_8_7)
+1 x(8_5_7)
+1 x(6_8_7)
+1 x(8_6_7)
+1 x(7_8_7)
+1 x(8_7_7)
= 1

bounds
   0 <= x(1_2_1) <= 1
   0 <= x(1_3_1) <= 1
   0 <= x(1_4_1) <= 1
   0 <= x(1_5_1) <= 1
   0 <= x(1_6_1) <= 1
   0 <= x(1_7_1) <= 1
   0 <= x(2_1_1) <= 1
   0 <= x(2_3_1) <= 1
   0 <= x(2_4_1) <= 1
   0 <= x(2_5_1) <= 1
   0 <= x(2_6_1) <= 1
   0 <= x(2_7_1) <= 1
   0 <= x(2_8_1) <= 1
   0 <= x(3_1_1) <= 1
   0 <= x(3_2_1) <= 1
   0 <= x(3_4_1) <= 1
   0 <= x(3_5_1) <= 1
   0 <= x(3_6_1) <= 1
   0 <= x(3_7_1) <= 1
   0 <= x(3_8_1) <= 1
   0 <= x(4_1_1) <= 1
   0 <= x(4_2_1) <= 1
   0 <= x(4_3_1) <= 1
   0 <= x(4_6_1) <= 1
   0 <= x(4_7_1) <= 1
   0 <= x(4_8_1) <= 1
   0 <= x(5_1_1) <= 1
   0 <= x(5_2_1) <= 1
   0 <= x(5_3_1) <= 1
   0 <= x(5_6_1) <= 1
   0 <= x(5_7_1) <= 1
   0 <= x(5_8_1) <= 1
   0 <= x(6_1_1) <= 1
   0 <= x(6_2_1) <= 1
   0 <= x(6_3_1) <= 1
   0 <= x(6_4_1) <= 1
   0 <= x(6_5_1) <= 1
   0 <= x(6_7_1) <= 1
   0 <= x(6_8_1) <= 1
   0 <= x(7_1_1) <= 1
   0 <= x(7_2_1) <= 1
   0 <= x(7_3_1) <= 1
   0 <= x(7_4_1) <= 1
   0 <= x(7_5_1) <= 1
   0 <= x(7_6_1) <= 1
   0 <= x(7_8_1) <= 1
   0 <= x(8_2_1) <= 1
   0 <= x(8_3_1) <= 1
   0 <= x(8_4_1) <= 1
   0 <= x(8_5_1) <= 1
   0 <= x(8_6_1) <= 1
   0 <= x(8_7_1) <= 1
   0 <= x(1_1_1) <= 1
   0 <= x(2_2_1) <= 1
   0 <= x(3_3_1) <= 1
   0 <= x(4_4_1) <= 1
   0 <= x(5_5_1) <= 1
   0 <= x(6_6_1) <= 1
   0 <= x(7_7_1) <= 1
   0 <= x(8_8_1) <= 1
   0 <= x(1_1_2) <= 1
   0 <= x(2_2_2) <= 1
   0 <= x(3_3_2) <= 1
   0 <= x(4_4_2) <= 1
   0 <= x(5_5_2) <= 1
   0 <= x(6_6_2) <= 1
   0 <= x(7_7_2) <= 1
   0 <= x(8_8_2) <= 1
   0 <= x(1_1_3) <= 1
   0 <= x(2_2_3) <= 1
   0 <= x(3_3_3) <= 1
   0 <= x(4_4_3) <= 1
   0 <= x(5_5_3) <= 1
   0 <= x(6_6_3) <= 1
   0 <= x(7_7_3) <= 1
   0 <= x(8_8_3) <= 1
   0 <= x(1_1_4) <= 1
   0 <= x(2_2_4) <= 1
   0 <= x(3_3_4) <= 1
   0 <= x(4_4_4) <= 1
   0 <= x(5_5_4) <= 1
   0 <= x(6_6_4) <= 1
   0 <= x(7_7_4) <= 1
   0 <= x(8_8_4) <= 1
   0 <= x(1_1_5) <= 1
   0 <= x(2_2_5) <= 1
   0 <= x(3_3_5) <= 1
   0 <= x(4_4_5) <= 1
   0 <= x(5_5_5) <= 1
   0 <= x(6_6_5) <= 1
   0 <= x(7_7_5) <= 1
   0 <= x(8_8_5) <= 1
   0 <= x(1_1_6) <= 1
   0 <= x(2_2_6) <= 1
   0 <= x(3_3_6) <= 1
   0 <= x(4_4_6) <= 1
   0 <= x(5_5_6) <= 1
   0 <= x(6_6_6) <= 1
   0 <= x(7_7_6) <= 1
   0 <= x(8_8_6) <= 1
   0 <= x(1_1_7) <= 1
   0 <= x(2_2_7) <= 1
   0 <= x(3_3_7) <= 1
   0 <= x(4_4_7) <= 1
   0 <= x(5_5_7) <= 1
   0 <= x(6_6_7) <= 1
   0 <= x(7_7_7) <= 1
   0 <= x(8_8_7) <= 1
   0 <= x(1_2_2) <= 1
   0 <= x(2_1_2) <= 1
   0 <= x(1_2_3) <= 1
   0 <= x(2_1_3) <= 1
   0 <= x(1_2_4) <= 1
   0 <= x(2_1_4) <= 1
   0 <= x(1_2_5) <= 1
   0 <= x(2_1_5) <= 1
   0 <= x(1_2_6) <= 1
   0 <= x(2_1_6) <= 1
   0 <= x(1_2_7) <= 1
   0 <= x(2_1_7) <= 1
   0 <= x(1_3_2) <= 1
   0 <= x(3_1_2) <= 1
   0 <= x(1_3_3) <= 1
   0 <= x(3_1_3) <= 1
   0 <= x(1_3_4) <= 1
   0 <= x(3_1_4) <= 1
   0 <= x(1_3_5) <= 1
   0 <= x(3_1_5) <= 1
   0 <= x(1_3_6) <= 1
   0 <= x(3_1_6) <= 1
   0 <= x(1_3_7) <= 1
   0 <= x(3_1_7) <= 1
   0 <= x(1_4_2) <= 1
   0 <= x(4_1_2) <= 1
   0 <= x(1_4_3) <= 1
   0 <= x(4_1_3) <= 1
   0 <= x(1_4_4) <= 1
   0 <= x(4_1_4) <= 1
   0 <= x(1_4_5) <= 1
   0 <= x(4_1_5) <= 1
   0 <= x(1_4_6) <= 1
   0 <= x(4_1_6) <= 1
   0 <= x(1_4_7) <= 1
   0 <= x(4_1_7) <= 1
   0 <= x(1_5_2) <= 1
   0 <= x(5_1_2) <= 1
   0 <= x(1_5_3) <= 1
   0 <= x(5_1_3) <= 1
   0 <= x(1_5_4) <= 1
   0 <= x(5_1_4) <= 1
   0 <= x(1_5_5) <= 1
   0 <= x(5_1_5) <= 1
   0 <= x(1_5_6) <= 1
   0 <= x(5_1_6) <= 1
   0 <= x(1_5_7) <= 1
   0 <= x(5_1_7) <= 1
   0 <= x(1_6_2) <= 1
   0 <= x(6_1_2) <= 1
   0 <= x(1_6_3) <= 1
   0 <= x(6_1_3) <= 1
   0 <= x(1_6_4) <= 1
   0 <= x(6_1_4) <= 1
   0 <= x(1_6_5) <= 1
   0 <= x(6_1_5) <= 1
   0 <= x(1_6_6) <= 1
   0 <= x(6_1_6) <= 1
   0 <= x(1_6_7) <= 1
   0 <= x(6_1_7) <= 1
   0 <= x(1_7_2) <= 1
   0 <= x(7_1_2) <= 1
   0 <= x(1_7_3) <= 1
   0 <= x(7_1_3) <= 1
   0 <= x(1_7_4) <= 1
   0 <= x(7_1_4) <= 1
   0 <= x(1_7_5) <= 1
   0 <= x(7_1_5) <= 1
   0 <= x(1_7_6) <= 1
   0 <= x(7_1_6) <= 1
   0 <= x(1_7_7) <= 1
   0 <= x(7_1_7) <= 1
   0 <= x(1_8_1) <= 1
   0 <= x(8_1_1) <= 1
   0 <= x(1_8_2) <= 1
   0 <= x(8_1_2) <= 1
   0 <= x(1_8_3) <= 1
   0 <= x(8_1_3) <= 1
   0 <= x(1_8_4) <= 1
   0 <= x(8_1_4) <= 1
   0 <= x(1_8_5) <= 1
   0 <= x(8_1_5) <= 1
   0 <= x(1_8_6) <= 1
   0 <= x(8_1_6) <= 1
   0 <= x(1_8_7) <= 1
   0 <= x(8_1_7) <= 1
   0 <= x(2_3_2) <= 1
   0 <= x(3_2_2) <= 1
   0 <= x(2_3_3) <= 1
   0 <= x(3_2_3) <= 1
   0 <= x(2_3_4) <= 1
   0 <= x(3_2_4) <= 1
   0 <= x(2_3_5) <= 1
   0 <= x(3_2_5) <= 1
   0 <= x(2_3_6) <= 1
   0 <= x(3_2_6) <= 1
   0 <= x(2_3_7) <= 1
   0 <= x(3_2_7) <= 1
   0 <= x(2_4_2) <= 1
   0 <= x(4_2_2) <= 1
   0 <= x(2_4_3) <= 1
   0 <= x(4_2_3) <= 1
   0 <= x(2_4_4) <= 1
   0 <= x(4_2_4) <= 1
   0 <= x(2_4_5) <= 1
   0 <= x(4_2_5) <= 1
   0 <= x(2_4_6) <= 1
   0 <= x(4_2_6) <= 1
   0 <= x(2_4_7) <= 1
   0 <= x(4_2_7) <= 1
   0 <= x(2_5_2) <= 1
   0 <= x(5_2_2) <= 1
   0 <= x(2_5_3) <= 1
   0 <= x(5_2_3) <= 1
   0 <= x(2_5_4) <= 1
   0 <= x(5_2_4) <= 1
   0 <= x(2_5_5) <= 1
   0 <= x(5_2_5) <= 1
   0 <= x(2_5_6) <= 1
   0 <= x(5_2_6) <= 1
   0 <= x(2_5_7) <= 1
   0 <= x(5_2_7) <= 1
   0 <= x(2_6_2) <= 1
   0 <= x(6_2_2) <= 1
   0 <= x(2_6_3) <= 1
   0 <= x(6_2_3) <= 1
   0 <= x(2_6_4) <= 1
   0 <= x(6_2_4) <= 1
   0 <= x(2_6_5) <= 1
   0 <= x(6_2_5) <= 1
   0 <= x(2_6_6) <= 1
   0 <= x(6_2_6) <= 1
   0 <= x(2_6_7) <= 1
   0 <= x(6_2_7) <= 1
   0 <= x(2_7_2) <= 1
   0 <= x(7_2_2) <= 1
   0 <= x(2_7_3) <= 1
   0 <= x(7_2_3) <= 1
   0 <= x(2_7_4) <= 1
   0 <= x(7_2_4) <= 1
   0 <= x(2_7_5) <= 1
   0 <= x(7_2_5) <= 1
   0 <= x(2_7_6) <= 1
   0 <= x(7_2_6) <= 1
   0 <= x(2_7_7) <= 1
   0 <= x(7_2_7) <= 1
   0 <= x(2_8_2) <= 1
   0 <= x(8_2_2) <= 1
   0 <= x(2_8_3) <= 1
   0 <= x(8_2_3) <= 1
   0 <= x(2_8_4) <= 1
   0 <= x(8_2_4) <= 1
   0 <= x(2_8_5) <= 1
   0 <= x(8_2_5) <= 1
   0 <= x(2_8_6) <= 1
   0 <= x(8_2_6) <= 1
   0 <= x(2_8_7) <= 1
   0 <= x(8_2_7) <= 1
   0 <= x(3_4_2) <= 1
   0 <= x(4_3_2) <= 1
   0 <= x(3_4_3) <= 1
   0 <= x(4_3_3) <= 1
   0 <= x(3_4_4) <= 1
   0 <= x(4_3_4) <= 1
   0 <= x(3_4_5) <= 1
   0 <= x(4_3_5) <= 1
   0 <= x(3_4_6) <= 1
   0 <= x(4_3_6) <= 1
   0 <= x(3_4_7) <= 1
   0 <= x(4_3_7) <= 1
   0 <= x(3_5_2) <= 1
   0 <= x(5_3_2) <= 1
   0 <= x(3_5_3) <= 1
   0 <= x(5_3_3) <= 1
   0 <= x(3_5_4) <= 1
   0 <= x(5_3_4) <= 1
   0 <= x(3_5_5) <= 1
   0 <= x(5_3_5) <= 1
   0 <= x(3_5_6) <= 1
   0 <= x(5_3_6) <= 1
   0 <= x(3_5_7) <= 1
   0 <= x(5_3_7) <= 1
   0 <= x(3_6_2) <= 1
   0 <= x(6_3_2) <= 1
   0 <= x(3_6_3) <= 1
   0 <= x(6_3_3) <= 1
   0 <= x(3_6_4) <= 1
   0 <= x(6_3_4) <= 1
   0 <= x(3_6_5) <= 1
   0 <= x(6_3_5) <= 1
   0 <= x(3_6_6) <= 1
   0 <= x(6_3_6) <= 1
   0 <= x(3_6_7) <= 1
   0 <= x(6_3_7) <= 1
   0 <= x(3_7_2) <= 1
   0 <= x(7_3_2) <= 1
   0 <= x(3_7_3) <= 1
   0 <= x(7_3_3) <= 1
   0 <= x(3_7_4) <= 1
   0 <= x(7_3_4) <= 1
   0 <= x(3_7_5) <= 1
   0 <= x(7_3_5) <= 1
   0 <= x(3_7_6) <= 1
   0 <= x(7_3_6) <= 1
   0 <= x(3_7_7) <= 1
   0 <= x(7_3_7) <= 1
   0 <= x(3_8_2) <= 1
   0 <= x(8_3_2) <= 1
   0 <= x(3_8_3) <= 1
   0 <= x(8_3_3) <= 1
   0 <= x(3_8_4) <= 1
   0 <= x(8_3_4) <= 1
   0 <= x(3_8_5) <= 1
   0 <= x(8_3_5) <= 1
   0 <= x(3_8_6) <= 1
   0 <= x(8_3_6) <= 1
   0 <= x(3_8_7) <= 1
   0 <= x(8_3_7) <= 1
   0 <= x(4_5_1) <= 1
   0 <= x(5_4_1) <= 1
   0 <= x(4_5_2) <= 1
   0 <= x(5_4_2) <= 1
   0 <= x(4_5_3) <= 1
   0 <= x(5_4_3) <= 1
   0 <= x(4_5_4) <= 1
   0 <= x(5_4_4) <= 1
   0 <= x(4_5_5) <= 1
   0 <= x(5_4_5) <= 1
   0 <= x(4_5_6) <= 1
   0 <= x(5_4_6) <= 1
   0 <= x(4_5_7) <= 1
   0 <= x(5_4_7) <= 1
   0 <= x(4_6_2) <= 1
   0 <= x(6_4_2) <= 1
   0 <= x(4_6_3) <= 1
   0 <= x(6_4_3) <= 1
   0 <= x(4_6_4) <= 1
   0 <= x(6_4_4) <= 1
   0 <= x(4_6_5) <= 1
   0 <= x(6_4_5) <= 1
   0 <= x(4_6_6) <= 1
   0 <= x(6_4_6) <= 1
   0 <= x(4_6_7) <= 1
   0 <= x(6_4_7) <= 1
   0 <= x(4_7_2) <= 1
   0 <= x(7_4_2) <= 1
   0 <= x(4_7_3) <= 1
   0 <= x(7_4_3) <= 1
   0 <= x(4_7_4) <= 1
   0 <= x(7_4_4) <= 1
   0 <= x(4_7_5) <= 1
   0 <= x(7_4_5) <= 1
   0 <= x(4_7_6) <= 1
   0 <= x(7_4_6) <= 1
   0 <= x(4_7_7) <= 1
   0 <= x(7_4_7) <= 1
   0 <= x(4_8_2) <= 1
   0 <= x(8_4_2) <= 1
   0 <= x(4_8_3) <= 1
   0 <= x(8_4_3) <= 1
   0 <= x(4_8_4) <= 1
   0 <= x(8_4_4) <= 1
   0 <= x(4_8_5) <= 1
   0 <= x(8_4_5) <= 1
   0 <= x(4_8_6) <= 1
   0 <= x(8_4_6) <= 1
   0 <= x(4_8_7) <= 1
   0 <= x(8_4_7) <= 1
   0 <= x(5_6_2) <= 1
   0 <= x(6_5_2) <= 1
   0 <= x(5_6_3) <= 1
   0 <= x(6_5_3) <= 1
   0 <= x(5_6_4) <= 1
   0 <= x(6_5_4) <= 1
   0 <= x(5_6_5) <= 1
   0 <= x(6_5_5) <= 1
   0 <= x(5_6_6) <= 1
   0 <= x(6_5_6) <= 1
   0 <= x(5_6_7) <= 1
   0 <= x(6_5_7) <= 1
   0 <= x(5_7_2) <= 1
   0 <= x(7_5_2) <= 1
   0 <= x(5_7_3) <= 1
   0 <= x(7_5_3) <= 1
   0 <= x(5_7_4) <= 1
   0 <= x(7_5_4) <= 1
   0 <= x(5_7_5) <= 1
   0 <= x(7_5_5) <= 1
   0 <= x(5_7_6) <= 1
   0 <= x(7_5_6) <= 1
   0 <= x(5_7_7) <= 1
   0 <= x(7_5_7) <= 1
   0 <= x(5_8_2) <= 1
   0 <= x(8_5_2) <= 1
   0 <= x(5_8_3) <= 1
   0 <= x(8_5_3) <= 1
   0 <= x(5_8_4) <= 1
   0 <= x(8_5_4) <= 1
   0 <= x(5_8_5) <= 1
   0 <= x(8_5_5) <= 1
   0 <= x(5_8_6) <= 1
   0 <= x(8_5_6) <= 1
   0 <= x(5_8_7) <= 1
   0 <= x(8_5_7) <= 1
   0 <= x(6_7_2) <= 1
   0 <= x(7_6_2) <= 1
   0 <= x(6_7_3) <= 1
   0 <= x(7_6_3) <= 1
   0 <= x(6_7_4) <= 1
   0 <= x(7_6_4) <= 1
   0 <= x(6_7_5) <= 1
   0 <= x(7_6_5) <= 1
   0 <= x(6_7_6) <= 1
   0 <= x(7_6_6) <= 1
   0 <= x(6_7_7) <= 1
   0 <= x(7_6_7) <= 1
   0 <= x(6_8_2) <= 1
   0 <= x(8_6_2) <= 1
   0 <= x(6_8_3) <= 1
   0 <= x(8_6_3) <= 1
   0 <= x(6_8_4) <= 1
   0 <= x(8_6_4) <= 1
   0 <= x(6_8_5) <= 1
   0 <= x(8_6_5) <= 1
   0 <= x(6_8_6) <= 1
   0 <= x(8_6_6) <= 1
   0 <= x(6_8_7) <= 1
   0 <= x(8_6_7) <= 1
   0 <= x(7_8_2) <= 1
   0 <= x(8_7_2) <= 1
   0 <= x(7_8_3) <= 1
   0 <= x(8_7_3) <= 1
   0 <= x(7_8_4) <= 1
   0 <= x(8_7_4) <= 1
   0 <= x(7_8_5) <= 1
   0 <= x(8_7_5) <= 1
   0 <= x(7_8_6) <= 1
   0 <= x(8_7_6) <= 1
   0 <= x(7_8_7) <= 1
   0 <= x(8_7_7) <= 1
binary
  x(1_2_1)
  x(1_3_1)
  x(1_4_1)
  x(1_5_1)
  x(1_6_1)
  x(1_7_1)
  x(2_1_1)
  x(2_3_1)
  x(2_4_1)
  x(2_5_1)
  x(2_6_1)
  x(2_7_1)
  x(2_8_1)
  x(3_1_1)
  x(3_2_1)
  x(3_4_1)
  x(3_5_1)
  x(3_6_1)
  x(3_7_1)
  x(3_8_1)
  x(4_1_1)
  x(4_2_1)
  x(4_3_1)
  x(4_6_1)
  x(4_7_1)
  x(4_8_1)
  x(5_1_1)
  x(5_2_1)
  x(5_3_1)
  x(5_6_1)
  x(5_7_1)
  x(5_8_1)
  x(6_1_1)
  x(6_2_1)
  x(6_3_1)
  x(6_4_1)
  x(6_5_1)
  x(6_7_1)
  x(6_8_1)
  x(7_1_1)
  x(7_2_1)
  x(7_3_1)
  x(7_4_1)
  x(7_5_1)
  x(7_6_1)
  x(7_8_1)
  x(8_2_1)
  x(8_3_1)
  x(8_4_1)
  x(8_5_1)
  x(8_6_1)
  x(8_7_1)
  x(1_1_1)
  x(2_2_1)
  x(3_3_1)
  x(4_4_1)
  x(5_5_1)
  x(6_6_1)
  x(7_7_1)
  x(8_8_1)
  x(1_1_2)
  x(2_2_2)
  x(3_3_2)
  x(4_4_2)
  x(5_5_2)
  x(6_6_2)
  x(7_7_2)
  x(8_8_2)
  x(1_1_3)
  x(2_2_3)
  x(3_3_3)
  x(4_4_3)
  x(5_5_3)
  x(6_6_3)
  x(7_7_3)
  x(8_8_3)
  x(1_1_4)
  x(2_2_4)
  x(3_3_4)
  x(4_4_4)
  x(5_5_4)
  x(6_6_4)
  x(7_7_4)
  x(8_8_4)
  x(1_1_5)
  x(2_2_5)
  x(3_3_5)
  x(4_4_5)
  x(5_5_5)
  x(6_6_5)
  x(7_7_5)
  x(8_8_5)
  x(1_1_6)
  x(2_2_6)
  x(3_3_6)
  x(4_4_6)
  x(5_5_6)
  x(6_6_6)
  x(7_7_6)
  x(8_8_6)
  x(1_1_7)
  x(2_2_7)
  x(3_3_7)
  x(4_4_7)
  x(5_5_7)
  x(6_6_7)
  x(7_7_7)
  x(8_8_7)
  x(1_2_2)
  x(2_1_2)
  x(1_2_3)
  x(2_1_3)
  x(1_2_4)
  x(2_1_4)
  x(1_2_5)
  x(2_1_5)
  x(1_2_6)
  x(2_1_6)
  x(1_2_7)
  x(2_1_7)
  x(1_3_2)
  x(3_1_2)
  x(1_3_3)
  x(3_1_3)
  x(1_3_4)
  x(3_1_4)
  x(1_3_5)
  x(3_1_5)
  x(1_3_6)
  x(3_1_6)
  x(1_3_7)
  x(3_1_7)
  x(1_4_2)
  x(4_1_2)
  x(1_4_3)
  x(4_1_3)
  x(1_4_4)
  x(4_1_4)
  x(1_4_5)
  x(4_1_5)
  x(1_4_6)
  x(4_1_6)
  x(1_4_7)
  x(4_1_7)
  x(1_5_2)
  x(5_1_2)
  x(1_5_3)
  x(5_1_3)
  x(1_5_4)
  x(5_1_4)
  x(1_5_5)
  x(5_1_5)
  x(1_5_6)
  x(5_1_6)
  x(1_5_7)
  x(5_1_7)
  x(1_6_2)
  x(6_1_2)
  x(1_6_3)
  x(6_1_3)
  x(1_6_4)
  x(6_1_4)
  x(1_6_5)
  x(6_1_5)
  x(1_6_6)
  x(6_1_6)
  x(1_6_7)
  x(6_1_7)
  x(1_7_2)
  x(7_1_2)
  x(1_7_3)
  x(7_1_3)
  x(1_7_4)
  x(7_1_4)
  x(1_7_5)
  x(7_1_5)
  x(1_7_6)
  x(7_1_6)
  x(1_7_7)
  x(7_1_7)
  x(1_8_1)
  x(8_1_1)
  x(1_8_2)
  x(8_1_2)
  x(1_8_3)
  x(8_1_3)
  x(1_8_4)
  x(8_1_4)
  x(1_8_5)
  x(8_1_5)
  x(1_8_6)
  x(8_1_6)
  x(1_8_7)
  x(8_1_7)
  x(2_3_2)
  x(3_2_2)
  x(2_3_3)
  x(3_2_3)
  x(2_3_4)
  x(3_2_4)
  x(2_3_5)
  x(3_2_5)
  x(2_3_6)
  x(3_2_6)
  x(2_3_7)
  x(3_2_7)
  x(2_4_2)
  x(4_2_2)
  x(2_4_3)
  x(4_2_3)
  x(2_4_4)
  x(4_2_4)
  x(2_4_5)
  x(4_2_5)
  x(2_4_6)
  x(4_2_6)
  x(2_4_7)
  x(4_2_7)
  x(2_5_2)
  x(5_2_2)
  x(2_5_3)
  x(5_2_3)
  x(2_5_4)
  x(5_2_4)
  x(2_5_5)
  x(5_2_5)
  x(2_5_6)
  x(5_2_6)
  x(2_5_7)
  x(5_2_7)
  x(2_6_2)
  x(6_2_2)
  x(2_6_3)
  x(6_2_3)
  x(2_6_4)
  x(6_2_4)
  x(2_6_5)
  x(6_2_5)
  x(2_6_6)
  x(6_2_6)
  x(2_6_7)
  x(6_2_7)
  x(2_7_2)
  x(7_2_2)
  x(2_7_3)
  x(7_2_3)
  x(2_7_4)
  x(7_2_4)
  x(2_7_5)
  x(7_2_5)
  x(2_7_6)
  x(7_2_6)
  x(2_7_7)
  x(7_2_7)
  x(2_8_2)
  x(8_2_2)
  x(2_8_3)
  x(8_2_3)
  x(2_8_4)
  x(8_2_4)
  x(2_8_5)
  x(8_2_5)
  x(2_8_6)
  x(8_2_6)
  x(2_8_7)
  x(8_2_7)
  x(3_4_2)
  x(4_3_2)
  x(3_4_3)
  x(4_3_3)
  x(3_4_4)
  x(4_3_4)
  x(3_4_5)
  x(4_3_5)
  x(3_4_6)
  x(4_3_6)
  x(3_4_7)
  x(4_3_7)
  x(3_5_2)
  x(5_3_2)
  x(3_5_3)
  x(5_3_3)
  x(3_5_4)
  x(5_3_4)
  x(3_5_5)
  x(5_3_5)
  x(3_5_6)
  x(5_3_6)
  x(3_5_7)
  x(5_3_7)
  x(3_6_2)
  x(6_3_2)
  x(3_6_3)
  x(6_3_3)
  x(3_6_4)
  x(6_3_4)
  x(3_6_5)
  x(6_3_5)
  x(3_6_6)
  x(6_3_6)
  x(3_6_7)
  x(6_3_7)
  x(3_7_2)
  x(7_3_2)
  x(3_7_3)
  x(7_3_3)
  x(3_7_4)
  x(7_3_4)
  x(3_7_5)
  x(7_3_5)
  x(3_7_6)
  x(7_3_6)
  x(3_7_7)
  x(7_3_7)
  x(3_8_2)
  x(8_3_2)
  x(3_8_3)
  x(8_3_3)
  x(3_8_4)
  x(8_3_4)
  x(3_8_5)
  x(8_3_5)
  x(3_8_6)
  x(8_3_6)
  x(3_8_7)
  x(8_3_7)
  x(4_5_1)
  x(5_4_1)
  x(4_5_2)
  x(5_4_2)
  x(4_5_3)
  x(5_4_3)
  x(4_5_4)
  x(5_4_4)
  x(4_5_5)
  x(5_4_5)
  x(4_5_6)
  x(5_4_6)
  x(4_5_7)
  x(5_4_7)
  x(4_6_2)
  x(6_4_2)
  x(4_6_3)
  x(6_4_3)
  x(4_6_4)
  x(6_4_4)
  x(4_6_5)
  x(6_4_5)
  x(4_6_6)
  x(6_4_6)
  x(4_6_7)
  x(6_4_7)
  x(4_7_2)
  x(7_4_2)
  x(4_7_3)
  x(7_4_3)
  x(4_7_4)
  x(7_4_4)
  x(4_7_5)
  x(7_4_5)
  x(4_7_6)
  x(7_4_6)
  x(4_7_7)
  x(7_4_7)
  x(4_8_2)
  x(8_4_2)
  x(4_8_3)
  x(8_4_3)
  x(4_8_4)
  x(8_4_4)
  x(4_8_5)
  x(8_4_5)
  x(4_8_6)
  x(8_4_6)
  x(4_8_7)
  x(8_4_7)
  x(5_6_2)
  x(6_5_2)
  x(5_6_3)
  x(6_5_3)
  x(5_6_4)
  x(6_5_4)
  x(5_6_5)
  x(6_5_5)
  x(5_6_6)
  x(6_5_6)
  x(5_6_7)
  x(6_5_7)
  x(5_7_2)
  x(7_5_2)
  x(5_7_3)
  x(7_5_3)
  x(5_7_4)
  x(7_5_4)
  x(5_7_5)
  x(7_5_5)
  x(5_7_6)
  x(7_5_6)
  x(5_7_7)
  x(7_5_7)
  x(5_8_2)
  x(8_5_2)
  x(5_8_3)
  x(8_5_3)
  x(5_8_4)
  x(8_5_4)
  x(5_8_5)
  x(8_5_5)
  x(5_8_6)
  x(8_5_6)
  x(5_8_7)
  x(8_5_7)
  x(6_7_2)
  x(7_6_2)
  x(6_7_3)
  x(7_6_3)
  x(6_7_4)
  x(7_6_4)
  x(6_7_5)
  x(7_6_5)
  x(6_7_6)
  x(7_6_6)
  x(6_7_7)
  x(7_6_7)
  x(6_8_2)
  x(8_6_2)
  x(6_8_3)
  x(8_6_3)
  x(6_8_4)
  x(8_6_4)
  x(6_8_5)
  x(8_6_5)
  x(6_8_6)
  x(8_6_6)
  x(6_8_7)
  x(8_6_7)
  x(7_8_2)
  x(8_7_2)
  x(7_8_3)
  x(8_7_3)
  x(7_8_4)
  x(8_7_4)
  x(7_8_5)
  x(8_7_5)
  x(7_8_6)
  x(8_7_6)
  x(7_8_7)
  x(8_7_7)
end
